benchmark/results/graph__15-1000-0.10-03_8/graph__15-1000-0.10-03_8_QuintonOs_Benders_primal_sub.lp
\ This file has been generated by DOcplex
\ ENCODING=ISO-8859-1
\Problem name: Quinton Bounded Benders_primal_sub

Maximize
 obj: tau
Subject To
 c1: tau <= 0.001766784452
 c2: y_a0_proc_0 + y_a0_proc_1 + y_a0_proc_2 - tau = 0
 c3: y_a0_proc_0 <= 1
 c4: y_a0_proc_1 <= 0
 c5: y_a0_proc_2 <= 0
 c6: tau <= 0.001107419712
 c7: y_a1_proc_0 + y_a1_proc_1 + y_a1_proc_2 - tau = 0
 c8: y_a1_proc_0 <= 1
 c9: y_a1_proc_1 <= 0
 c10: y_a1_proc_2 <= 0
 c11: tau <= 0.001754385965
 c12: y_a2_proc_0 + y_a2_proc_1 + y_a2_proc_2 - tau = 0
 c13: y_a2_proc_0 <= 0
 c14: y_a2_proc_1 <= 0
 c15: y_a2_proc_2 <= 1
 c16: tau <= 0.002127659574
 c17: y_a3_proc_1 + y_a3_proc_2 - tau = 0
 c18: y_a3_proc_1 <= 1
 c19: y_a3_proc_2 <= 0
 c20: tau <= 0.001014198783
 c21: y_a4_proc_0 + y_a4_proc_1 + y_a4_proc_2 - tau = 0
 c22: y_a4_proc_0 <= 0
 c23: y_a4_proc_1 <= 0
 c24: y_a4_proc_2 <= 1
 c25: tau <= 0.001129943503
 c26: y_a5_proc_0 + y_a5_proc_2 - tau = 0
 c27: y_a5_proc_0 <= 1
 c28: y_a5_proc_2 <= 0
 c29: tau <= 0.001901140684
 c30: y_a6_proc_0 + y_a6_proc_1 - tau = 0
 c31: y_a6_proc_0 <= 1
 c32: y_a6_proc_1 <= 0
 c33: tau <= 0.008000000000
 c34: y_a7_proc_0 + y_a7_proc_1 + y_a7_proc_2 - tau = 0
 c35: y_a7_proc_0 <= 1
 c36: y_a7_proc_1 <= 0
 c37: y_a7_proc_2 <= 0
 c38: tau <= 0.001972386588
 c39: y_a8_proc_0 + y_a8_proc_1 + y_a8_proc_2 - tau = 0
 c40: y_a8_proc_0 <= 0
 c41: y_a8_proc_1 <= 1
 c42: y_a8_proc_2 <= 0
 c43: tau <= 0.000811688312
 c44: y_a9_proc_0 + y_a9_proc_1 - tau = 0
 c45: y_a9_proc_0 <= 0
 c46: y_a9_proc_1 <= 1
 c47: tau <= 0.000884173298
 c48: y_a10_proc_0 + y_a10_proc_2 - tau = 0
 c49: y_a10_proc_0 <= 0
 c50: y_a10_proc_2 <= 1
 c51: tau <= 0.001941747573
 c52: y_a11_proc_0 + y_a11_proc_1 - tau = 0
 c53: y_a11_proc_0 <= 1
 c54: y_a11_proc_1 <= 0
 c55: tau <= 0.001295336788
 c56: y_a12_proc_0 + y_a12_proc_1 + y_a12_proc_2 - tau = 0
 c57: y_a12_proc_0 <= 1
 c58: y_a12_proc_1 <= 0
 c59: y_a12_proc_2 <= 0
 c60: tau <= 0.001459854015
 c61: y_a13_proc_1 + y_a13_proc_2 - tau = 0
 c62: y_a13_proc_1 <= 1
 c63: y_a13_proc_2 <= 0
 c64: tau <= 0.001314060447
 c65: y_a14_proc_0 + y_a14_proc_1 - tau = 0
 c66: y_a14_proc_0 <= 0
 c67: y_a14_proc_1 <= 1
 c68: u_a1 - u_a0 - 566 y_a0_proc_0 - 713 y_a0_proc_1 - 900 y_a0_proc_2 >= 0
 c69: u_a0 - u_a2 - 961 y_a2_proc_0 - 1067 y_a2_proc_1 - 570 y_a2_proc_2 >= 0
 c70: u_a3 - u_a1 - 903 y_a1_proc_0 - 926 y_a1_proc_1 - 1282 y_a1_proc_2 >= 0
 c71: u_a4 - u_a2 - 961 y_a2_proc_0 - 1067 y_a2_proc_1 - 570 y_a2_proc_2 >= 0
 c72: u_a5 - u_a3 - 470 y_a3_proc_1 - 1126 y_a3_proc_2 >= 0
 c73: u_a5 - u_a6 - 526 y_a6_proc_0 - 1232 y_a6_proc_1 >= -1
 c74: u_a7 - u_a4 - 1236 y_a4_proc_0 - 918 y_a4_proc_1 - 986 y_a4_proc_2 >= 0
 c75: u_a8 - u_a2 - 961 y_a2_proc_0 - 1067 y_a2_proc_1 - 570 y_a2_proc_2 >= 0
 c76: u_a6 - u_a9 - 1110 y_a9_proc_0 - 1232 y_a9_proc_1 >= 0
 c77: u_a10 - u_a8 - 733 y_a8_proc_0 - 507 y_a8_proc_1 - 1124 y_a8_proc_2 >= 0
 c78: u_a6 - u_a11 - 515 y_a11_proc_0 - 1099 y_a11_proc_1 >= 0
 c79: u_a6 - u_a12 - 772 y_a12_proc_0 - 503 y_a12_proc_1 - 820 y_a12_proc_2 >= 
      0
 c80: u_a13 - u_a10 - 1220 y_a10_proc_0 - 1131 y_a10_proc_2 >= 0
 c81: u_a14 - u_a7 - 125 y_a7_proc_0 - 957 y_a7_proc_1 - 872 y_a7_proc_2 >= -1
 c82: u_a10 - u_a9 - 1110 y_a9_proc_0 - 1232 y_a9_proc_1 >= 0
 c83: u_a12 - u_a7 - 125 y_a7_proc_0 - 957 y_a7_proc_1 - 872 y_a7_proc_2 >= 0
 c84: u_a9 - u_a8 - 733 y_a8_proc_0 - 507 y_a8_proc_1 - 1124 y_a8_proc_2 >= 0
 c85: u_a2 - u_a4 - 1236 y_a4_proc_0 - 918 y_a4_proc_1 - 986 y_a4_proc_2 >= -1
 c86: u_a11 - u_a8 - 733 y_a8_proc_0 - 507 y_a8_proc_1 - 1124 y_a8_proc_2 >= 0
 c87: u_a14 - u_a0 - 566 y_a0_proc_0 - 713 y_a0_proc_1 - 900 y_a0_proc_2 >= -1
 c88: u_a8 - u_a10 - 1220 y_a10_proc_0 - 1131 y_a10_proc_2 >= -1
 c89: - 1236 y_a4_proc_0 - 918 y_a4_proc_1 - 986 y_a4_proc_2 >= -1
 c90: u_a1 - u_a7 - 125 y_a7_proc_0 - 957 y_a7_proc_1 - 872 y_a7_proc_2 >= 0
 c91: - 885 y_a5_proc_0 - 1262 y_a5_proc_2 >= -1
 c92: u_a2 - u_a13 - 685 y_a13_proc_1 - 915 y_a13_proc_2 >= -2
 c93: u_a11 - u_a12 - 772 y_a12_proc_0 - 503 y_a12_proc_1 - 820 y_a12_proc_2
       >= 0
 c94: u_a11 - u_a5 - 885 y_a5_proc_0 - 1262 y_a5_proc_2 >= 0
 c95: u_a2 - u_a14 - 866 y_a14_proc_0 - 761 y_a14_proc_1 >= 0
 c96: u_a14 - u_a13 - 685 y_a13_proc_1 - 915 y_a13_proc_2 >= -2
 c97: u_a1 - u_a0 - 713 y_a0_proc_1 >= -2564
 c98: u_a1 - u_a0 - 900 y_a0_proc_2 >= -2564
 c99: u_a1 - u_a0 - 566 y_a0_proc_0 >= 0
 c100: u_a0 - u_a1 - 926 y_a1_proc_1 >= -2565
 c101: u_a0 - u_a1 - 1282 y_a1_proc_2 >= -2565
 c102: u_a0 - u_a1 - 903 y_a1_proc_0 >= -1
 c103: u_a2 - u_a0 - 713 y_a0_proc_1 >= -2582
 c104: u_a2 - u_a0 - 900 y_a0_proc_2 >= -1300
 c105: u_a2 - u_a0 - 566 y_a0_proc_0 >= -1300
 c106: u_a0 - u_a2 - 1067 y_a2_proc_1 >= -2547
 c107: u_a0 - u_a2 - 570 y_a2_proc_2 >= -1265
 c108: u_a0 - u_a2 - 961 y_a2_proc_0 >= -1265
 c109: u_a3 - u_a0 - 713 y_a0_proc_1 >= -1300
 c110: u_a3 - u_a0 - 900 y_a0_proc_2 >= -2582
 c111: u_a0 - u_a3 - 470 y_a3_proc_1 >= -1265
 c112: u_a0 - u_a3 - 1126 y_a3_proc_2 >= -2547
 c113: u_a4 - u_a0 - 713 y_a0_proc_1 >= -2555
 c114: u_a4 - u_a0 - 900 y_a0_proc_2 >= -1273
 c115: u_a4 - u_a0 - 566 y_a0_proc_0 >= -1273
 c116: u_a0 - u_a4 - 918 y_a4_proc_1 >= -2574
 c117: u_a0 - u_a4 - 986 y_a4_proc_2 >= -1292
 c118: u_a0 - u_a4 - 1236 y_a4_proc_0 >= -1292
 c119: u_a5 - u_a0 - 900 y_a0_proc_2 >= -2547
 c120: u_a5 - u_a0 - 566 y_a0_proc_0 >= 17
 c121: u_a0 - u_a5 - 1262 y_a5_proc_2 >= -2582
 c122: u_a0 - u_a5 - 885 y_a5_proc_0 >= -18
 c123: u_a6 - u_a0 - 713 y_a0_proc_1 >= -2547
 c124: u_a6 - u_a0 - 566 y_a0_proc_0 >= 17
 c125: u_a0 - u_a6 - 1232 y_a6_proc_1 >= -2582
 c126: u_a0 - u_a6 - 526 y_a6_proc_0 >= -18
 c127: u_a7 - u_a0 - 713 y_a0_proc_1 >= -2565
 c128: u_a7 - u_a0 - 900 y_a0_proc_2 >= -2565
 c129: u_a7 - u_a0 - 566 y_a0_proc_0 >= -1
 c130: u_a0 - u_a7 - 957 y_a7_proc_1 >= -2564
 c131: u_a0 - u_a7 - 872 y_a7_proc_2 >= -2564
 c132: u_a0 - u_a7 - 125 y_a7_proc_0 >= 0
 c133: u_a8 - u_a0 - 713 y_a0_proc_1 >= -1265
 c134: u_a8 - u_a0 - 900 y_a0_proc_2 >= -2547
 c135: u_a8 - u_a0 - 566 y_a0_proc_0 >= -1265
 c136: u_a0 - u_a8 - 507 y_a8_proc_1 >= -1300
 c137: u_a0 - u_a8 - 1124 y_a8_proc_2 >= -2582
 c138: u_a0 - u_a8 - 733 y_a8_proc_0 >= -1300
 c139: u_a9 - u_a0 - 713 y_a0_proc_1 >= -1265
 c140: u_a9 - u_a0 - 566 y_a0_proc_0 >= -1265
 c141: u_a0 - u_a9 - 1232 y_a9_proc_1 >= -1300
 c142: u_a0 - u_a9 - 1110 y_a9_proc_0 >= -1300
 c143: u_a10 - u_a0 - 900 y_a0_proc_2 >= -1300
 c144: u_a10 - u_a0 - 566 y_a0_proc_0 >= -1300
 c145: u_a0 - u_a10 - 1131 y_a10_proc_2 >= -1265
 c146: u_a0 - u_a10 - 1220 y_a10_proc_0 >= -1265
 c147: u_a11 - u_a0 - 713 y_a0_proc_1 >= -2547
 c148: u_a11 - u_a0 - 566 y_a0_proc_0 >= 17
 c149: u_a0 - u_a11 - 1099 y_a11_proc_1 >= -2582
 c150: u_a0 - u_a11 - 515 y_a11_proc_0 >= -18
 c151: u_a12 - u_a0 - 713 y_a0_proc_1 >= -2548
 c152: u_a12 - u_a0 - 900 y_a0_proc_2 >= -2548
 c153: u_a12 - u_a0 - 566 y_a0_proc_0 >= 16
 c154: u_a0 - u_a12 - 503 y_a12_proc_1 >= -2581
 c155: u_a0 - u_a12 - 820 y_a12_proc_2 >= -2581
 c156: u_a0 - u_a12 - 772 y_a12_proc_0 >= -17
 c157: u_a13 - u_a0 - 713 y_a0_proc_1 >= -1300
 c158: u_a13 - u_a0 - 900 y_a0_proc_2 >= -2582
 c159: u_a0 - u_a13 - 685 y_a13_proc_1 >= -1265
 c160: u_a0 - u_a13 - 915 y_a13_proc_2 >= -2547
 c161: u_a14 - u_a0 - 713 y_a0_proc_1 >= -1300
 c162: u_a14 - u_a0 - 566 y_a0_proc_0 >= -1300
 c163: u_a0 - u_a14 - 761 y_a14_proc_1 >= -1265
 c164: u_a0 - u_a14 - 866 y_a14_proc_0 >= -1265
 c165: u_a2 - u_a1 - 926 y_a1_proc_1 >= -2582
 c166: u_a2 - u_a1 - 1282 y_a1_proc_2 >= -1300
 c167: u_a2 - u_a1 - 903 y_a1_proc_0 >= -1300
 c168: u_a1 - u_a2 - 1067 y_a2_proc_1 >= -2547
 c169: u_a1 - u_a2 - 570 y_a2_proc_2 >= -1265
 c170: u_a1 - u_a2 - 961 y_a2_proc_0 >= -1265
 c171: u_a3 - u_a1 - 926 y_a1_proc_1 >= -1265
 c172: u_a3 - u_a1 - 1282 y_a1_proc_2 >= -2547
 c173: u_a1 - u_a3 - 470 y_a3_proc_1 >= -1300
 c174: u_a1 - u_a3 - 1126 y_a3_proc_2 >= -2582
 c175: u_a4 - u_a1 - 926 y_a1_proc_1 >= -2582
 c176: u_a4 - u_a1 - 1282 y_a1_proc_2 >= -1300
 c177: u_a4 - u_a1 - 903 y_a1_proc_0 >= -1300
 c178: u_a1 - u_a4 - 918 y_a4_proc_1 >= -2547
 c179: u_a1 - u_a4 - 986 y_a4_proc_2 >= -1265
 c180: u_a1 - u_a4 - 1236 y_a4_proc_0 >= -1265
 c181: u_a5 - u_a1 - 1282 y_a1_proc_2 >= -2547
 c182: u_a5 - u_a1 - 903 y_a1_proc_0 >= 17
 c183: u_a1 - u_a5 - 1262 y_a5_proc_2 >= -2582
 c184: u_a1 - u_a5 - 885 y_a5_proc_0 >= -18
 c185: u_a6 - u_a1 - 926 y_a1_proc_1 >= -2547
 c186: u_a6 - u_a1 - 903 y_a1_proc_0 >= 17
 c187: u_a1 - u_a6 - 1232 y_a6_proc_1 >= -2582
 c188: u_a1 - u_a6 - 526 y_a6_proc_0 >= -18
 c189: u_a7 - u_a1 - 926 y_a1_proc_1 >= -2565
 c190: u_a7 - u_a1 - 1282 y_a1_proc_2 >= -2565
 c191: u_a7 - u_a1 - 903 y_a1_proc_0 >= -1
 c192: u_a1 - u_a7 - 957 y_a7_proc_1 >= -2564
 c193: u_a1 - u_a7 - 872 y_a7_proc_2 >= -2564
 c194: u_a1 - u_a7 - 125 y_a7_proc_0 >= 0
 c195: u_a8 - u_a1 - 926 y_a1_proc_1 >= -1300
 c196: u_a8 - u_a1 - 1282 y_a1_proc_2 >= -2582
 c197: u_a8 - u_a1 - 903 y_a1_proc_0 >= -1300
 c198: u_a1 - u_a8 - 507 y_a8_proc_1 >= -1265
 c199: u_a1 - u_a8 - 1124 y_a8_proc_2 >= -2547
 c200: u_a1 - u_a8 - 733 y_a8_proc_0 >= -1265
 c201: u_a9 - u_a1 - 926 y_a1_proc_1 >= -1300
 c202: u_a9 - u_a1 - 903 y_a1_proc_0 >= -1300
 c203: u_a1 - u_a9 - 1232 y_a9_proc_1 >= -1265
 c204: u_a1 - u_a9 - 1110 y_a9_proc_0 >= -1265
 c205: u_a10 - u_a1 - 1282 y_a1_proc_2 >= -1300
 c206: u_a10 - u_a1 - 903 y_a1_proc_0 >= -1300
 c207: u_a1 - u_a10 - 1131 y_a10_proc_2 >= -1265
 c208: u_a1 - u_a10 - 1220 y_a10_proc_0 >= -1265
 c209: u_a11 - u_a1 - 926 y_a1_proc_1 >= -2547
 c210: u_a11 - u_a1 - 903 y_a1_proc_0 >= 17
 c211: u_a1 - u_a11 - 1099 y_a11_proc_1 >= -2582
 c212: u_a1 - u_a11 - 515 y_a11_proc_0 >= -18
 c213: u_a12 - u_a1 - 926 y_a1_proc_1 >= -2548
 c214: u_a12 - u_a1 - 1282 y_a1_proc_2 >= -2548
 c215: u_a12 - u_a1 - 903 y_a1_proc_0 >= 16
 c216: u_a1 - u_a12 - 503 y_a12_proc_1 >= -2581
 c217: u_a1 - u_a12 - 820 y_a12_proc_2 >= -2581
 c218: u_a1 - u_a12 - 772 y_a12_proc_0 >= -17
 c219: u_a13 - u_a1 - 926 y_a1_proc_1 >= -1265
 c220: u_a13 - u_a1 - 1282 y_a1_proc_2 >= -2547
 c221: u_a1 - u_a13 - 685 y_a13_proc_1 >= -1300
 c222: u_a1 - u_a13 - 915 y_a13_proc_2 >= -2582
 c223: u_a14 - u_a1 - 926 y_a1_proc_1 >= -1300
 c224: u_a14 - u_a1 - 903 y_a1_proc_0 >= -1300
 c225: u_a1 - u_a14 - 761 y_a14_proc_1 >= -1265
 c226: u_a1 - u_a14 - 866 y_a14_proc_0 >= -1265
 c227: u_a3 - u_a2 - 1067 y_a2_proc_1 >= -1300
 c228: u_a3 - u_a2 - 570 y_a2_proc_2 >= -1300
 c229: u_a2 - u_a3 - 470 y_a3_proc_1 >= -1265
 c230: u_a2 - u_a3 - 1126 y_a3_proc_2 >= -1265
 c231: u_a4 - u_a2 - 1067 y_a2_proc_1 >= -2564
 c232: u_a4 - u_a2 - 570 y_a2_proc_2 >= 0
 c233: u_a4 - u_a2 - 961 y_a2_proc_0 >= -2564
 c234: u_a2 - u_a4 - 918 y_a4_proc_1 >= -2565
 c235: u_a2 - u_a4 - 986 y_a4_proc_2 >= -1
 c236: u_a2 - u_a4 - 1236 y_a4_proc_0 >= -2565
 c237: u_a5 - u_a2 - 570 y_a2_proc_2 >= -1265
 c238: u_a5 - u_a2 - 961 y_a2_proc_0 >= -1265
 c239: u_a2 - u_a5 - 1262 y_a5_proc_2 >= -1300
 c240: u_a2 - u_a5 - 885 y_a5_proc_0 >= -1300
 c241: u_a6 - u_a2 - 1067 y_a2_proc_1 >= -2582
 c242: u_a6 - u_a2 - 961 y_a2_proc_0 >= -1300
 c243: u_a2 - u_a6 - 1232 y_a6_proc_1 >= -2547
 c244: u_a2 - u_a6 - 526 y_a6_proc_0 >= -1265
 c245: u_a7 - u_a2 - 1067 y_a2_proc_1 >= -2582
 c246: u_a7 - u_a2 - 570 y_a2_proc_2 >= -1300
 c247: u_a7 - u_a2 - 961 y_a2_proc_0 >= -1300
 c248: u_a2 - u_a7 - 957 y_a7_proc_1 >= -2547
 c249: u_a2 - u_a7 - 872 y_a7_proc_2 >= -1265
 c250: u_a2 - u_a7 - 125 y_a7_proc_0 >= -1265
 c251: u_a8 - u_a2 - 1067 y_a2_proc_1 >= -1300
 c252: u_a8 - u_a2 - 570 y_a2_proc_2 >= -1300
 c253: u_a8 - u_a2 - 961 y_a2_proc_0 >= -2582
 c254: u_a2 - u_a8 - 507 y_a8_proc_1 >= -1265
 c255: u_a2 - u_a8 - 1124 y_a8_proc_2 >= -1265
 c256: u_a2 - u_a8 - 733 y_a8_proc_0 >= -2547
 c257: u_a9 - u_a2 - 1067 y_a2_proc_1 >= -1265
 c258: u_a9 - u_a2 - 961 y_a2_proc_0 >= -2547
 c259: u_a2 - u_a9 - 1232 y_a9_proc_1 >= -1300
 c260: u_a2 - u_a9 - 1110 y_a9_proc_0 >= -2582
 c261: u_a10 - u_a2 - 570 y_a2_proc_2 >= 0
 c262: u_a10 - u_a2 - 961 y_a2_proc_0 >= -2564
 c263: u_a2 - u_a10 - 1131 y_a10_proc_2 >= -1
 c264: u_a2 - u_a10 - 1220 y_a10_proc_0 >= -2565
 c265: u_a11 - u_a2 - 1067 y_a2_proc_1 >= -2582
 c266: u_a11 - u_a2 - 961 y_a2_proc_0 >= -1300
 c267: u_a2 - u_a11 - 1099 y_a11_proc_1 >= -2547
 c268: u_a2 - u_a11 - 515 y_a11_proc_0 >= -1265
 c269: u_a12 - u_a2 - 1067 y_a2_proc_1 >= -2582
 c270: u_a12 - u_a2 - 570 y_a2_proc_2 >= -1300
 c271: u_a12 - u_a2 - 961 y_a2_proc_0 >= -1300
 c272: u_a2 - u_a12 - 503 y_a12_proc_1 >= -2547
 c273: u_a2 - u_a12 - 820 y_a12_proc_2 >= -1265
 c274: u_a2 - u_a12 - 772 y_a12_proc_0 >= -1265
 c275: u_a13 - u_a2 - 1067 y_a2_proc_1 >= -1300
 c276: u_a13 - u_a2 - 570 y_a2_proc_2 >= -1300
 c277: u_a2 - u_a13 - 685 y_a13_proc_1 >= -1265
 c278: u_a2 - u_a13 - 915 y_a13_proc_2 >= -1265
 c279: u_a14 - u_a2 - 1067 y_a2_proc_1 >= -1300
 c280: u_a14 - u_a2 - 961 y_a2_proc_0 >= -2582
 c281: u_a2 - u_a14 - 761 y_a14_proc_1 >= -1265
 c282: u_a2 - u_a14 - 866 y_a14_proc_0 >= -2547
 c283: u_a4 - u_a3 - 470 y_a3_proc_1 >= -1265
 c284: u_a4 - u_a3 - 1126 y_a3_proc_2 >= -1265
 c285: u_a3 - u_a4 - 918 y_a4_proc_1 >= -1300
 c286: u_a3 - u_a4 - 986 y_a4_proc_2 >= -1300
 c287: u_a5 - u_a3 - 1126 y_a3_proc_2 >= -2547
 c288: u_a3 - u_a5 - 1262 y_a5_proc_2 >= -2582
 c289: u_a6 - u_a3 - 470 y_a3_proc_1 >= -1265
 c290: u_a3 - u_a6 - 1232 y_a6_proc_1 >= -1300
 c291: u_a7 - u_a3 - 470 y_a3_proc_1 >= -1300
 c292: u_a7 - u_a3 - 1126 y_a3_proc_2 >= -2582
 c293: u_a3 - u_a7 - 957 y_a7_proc_1 >= -1265
 c294: u_a3 - u_a7 - 872 y_a7_proc_2 >= -2547
 c295: u_a8 - u_a3 - 470 y_a3_proc_1 >= -18
 c296: u_a8 - u_a3 - 1126 y_a3_proc_2 >= -2582
 c297: u_a3 - u_a8 - 507 y_a8_proc_1 >= 17
 c298: u_a3 - u_a8 - 1124 y_a8_proc_2 >= -2547
 c299: u_a9 - u_a3 - 470 y_a3_proc_1 >= -18
 c300: u_a3 - u_a9 - 1232 y_a9_proc_1 >= 17
 c301: u_a10 - u_a3 - 1126 y_a3_proc_2 >= -1300
 c302: u_a3 - u_a10 - 1131 y_a10_proc_2 >= -1265
 c303: u_a11 - u_a3 - 470 y_a3_proc_1 >= -1265
 c304: u_a3 - u_a11 - 1099 y_a11_proc_1 >= -1300
 c305: u_a12 - u_a3 - 470 y_a3_proc_1 >= -1300
 c306: u_a12 - u_a3 - 1126 y_a3_proc_2 >= -2582
 c307: u_a3 - u_a12 - 503 y_a12_proc_1 >= -1265
 c308: u_a3 - u_a12 - 820 y_a12_proc_2 >= -2547
 c309: u_a13 - u_a3 - 470 y_a3_proc_1 >= -16
 c310: u_a13 - u_a3 - 1126 y_a3_proc_2 >= -2580
 c311: u_a3 - u_a13 - 685 y_a13_proc_1 >= 15
 c312: u_a3 - u_a13 - 915 y_a13_proc_2 >= -2549
 c313: u_a14 - u_a3 - 470 y_a3_proc_1 >= -18
 c314: u_a3 - u_a14 - 761 y_a14_proc_1 >= 17
 c315: u_a5 - u_a4 - 986 y_a4_proc_2 >= -1300
 c316: u_a5 - u_a4 - 1236 y_a4_proc_0 >= -1300
 c317: u_a4 - u_a5 - 1262 y_a5_proc_2 >= -1265
 c318: u_a4 - u_a5 - 885 y_a5_proc_0 >= -1265
 c319: u_a6 - u_a4 - 918 y_a4_proc_1 >= -2582
 c320: u_a6 - u_a4 - 1236 y_a4_proc_0 >= -1300
 c321: u_a4 - u_a6 - 1232 y_a6_proc_1 >= -2547
 c322: u_a4 - u_a6 - 526 y_a6_proc_0 >= -1265
 c323: u_a7 - u_a4 - 918 y_a4_proc_1 >= -2582
 c324: u_a7 - u_a4 - 986 y_a4_proc_2 >= -1300
 c325: u_a7 - u_a4 - 1236 y_a4_proc_0 >= -1300
 c326: u_a4 - u_a7 - 957 y_a7_proc_1 >= -2547
 c327: u_a4 - u_a7 - 872 y_a7_proc_2 >= -1265
 c328: u_a4 - u_a7 - 125 y_a7_proc_0 >= -1265
 c329: u_a8 - u_a4 - 918 y_a4_proc_1 >= -1265
 c330: u_a8 - u_a4 - 986 y_a4_proc_2 >= -1265
 c331: u_a8 - u_a4 - 1236 y_a4_proc_0 >= -2547
 c332: u_a4 - u_a8 - 507 y_a8_proc_1 >= -1300
 c333: u_a4 - u_a8 - 1124 y_a8_proc_2 >= -1300
 c334: u_a4 - u_a8 - 733 y_a8_proc_0 >= -2582
 c335: u_a9 - u_a4 - 918 y_a4_proc_1 >= -1300
 c336: u_a9 - u_a4 - 1236 y_a4_proc_0 >= -2582
 c337: u_a4 - u_a9 - 1232 y_a9_proc_1 >= -1265
 c338: u_a4 - u_a9 - 1110 y_a9_proc_0 >= -2547
 c339: u_a10 - u_a4 - 986 y_a4_proc_2 >= 0
 c340: u_a10 - u_a4 - 1236 y_a4_proc_0 >= -2564
 c341: u_a4 - u_a10 - 1131 y_a10_proc_2 >= -1
 c342: u_a4 - u_a10 - 1220 y_a10_proc_0 >= -2565
 c343: u_a11 - u_a4 - 918 y_a4_proc_1 >= -2582
 c344: u_a11 - u_a4 - 1236 y_a4_proc_0 >= -1300
 c345: u_a4 - u_a11 - 1099 y_a11_proc_1 >= -2547
 c346: u_a4 - u_a11 - 515 y_a11_proc_0 >= -1265
 c347: u_a12 - u_a4 - 918 y_a4_proc_1 >= -2582
 c348: u_a12 - u_a4 - 986 y_a4_proc_2 >= -1300
 c349: u_a12 - u_a4 - 1236 y_a4_proc_0 >= -1300
 c350: u_a4 - u_a12 - 503 y_a12_proc_1 >= -2547
 c351: u_a4 - u_a12 - 820 y_a12_proc_2 >= -1265
 c352: u_a4 - u_a12 - 772 y_a12_proc_0 >= -1265
 c353: u_a13 - u_a4 - 918 y_a4_proc_1 >= -1265
 c354: u_a13 - u_a4 - 986 y_a4_proc_2 >= -1265
 c355: u_a4 - u_a13 - 685 y_a13_proc_1 >= -1300
 c356: u_a4 - u_a13 - 915 y_a13_proc_2 >= -1300
 c357: u_a14 - u_a4 - 918 y_a4_proc_1 >= -1300
 c358: u_a14 - u_a4 - 1236 y_a4_proc_0 >= -2582
 c359: u_a4 - u_a14 - 761 y_a14_proc_1 >= -1265
 c360: u_a4 - u_a14 - 866 y_a14_proc_0 >= -2547
 c361: u_a6 - u_a5 - 885 y_a5_proc_0 >= 0
 c362: u_a5 - u_a6 - 526 y_a6_proc_0 >= -1
 c363: u_a7 - u_a5 - 1262 y_a5_proc_2 >= -2582
 c364: u_a7 - u_a5 - 885 y_a5_proc_0 >= -18
 c365: u_a5 - u_a7 - 872 y_a7_proc_2 >= -2547
 c366: u_a5 - u_a7 - 125 y_a7_proc_0 >= 17
 c367: u_a8 - u_a5 - 1262 y_a5_proc_2 >= -2582
 c368: u_a8 - u_a5 - 885 y_a5_proc_0 >= -1300
 c369: u_a5 - u_a8 - 1124 y_a8_proc_2 >= -2547
 c370: u_a5 - u_a8 - 733 y_a8_proc_0 >= -1265
 c371: u_a9 - u_a5 - 885 y_a5_proc_0 >= -1265
 c372: u_a5 - u_a9 - 1110 y_a9_proc_0 >= -1300
 c373: u_a10 - u_a5 - 1262 y_a5_proc_2 >= -1300
 c374: u_a10 - u_a5 - 885 y_a5_proc_0 >= -1300
 c375: u_a5 - u_a10 - 1131 y_a10_proc_2 >= -1265
 c376: u_a5 - u_a10 - 1220 y_a10_proc_0 >= -1265
 c377: u_a11 - u_a5 - 885 y_a5_proc_0 >= 0
 c378: u_a5 - u_a11 - 515 y_a11_proc_0 >= -1
 c379: u_a12 - u_a5 - 1262 y_a5_proc_2 >= -2566
 c380: u_a12 - u_a5 - 885 y_a5_proc_0 >= -2
 c381: u_a5 - u_a12 - 820 y_a12_proc_2 >= -2563
 c382: u_a5 - u_a12 - 772 y_a12_proc_0 >= 1
 c383: u_a13 - u_a5 - 1262 y_a5_proc_2 >= -2547
 c384: u_a5 - u_a13 - 915 y_a13_proc_2 >= -2582
 c385: u_a14 - u_a5 - 885 y_a5_proc_0 >= -1300
 c386: u_a5 - u_a14 - 866 y_a14_proc_0 >= -1265
 c387: u_a7 - u_a6 - 1232 y_a6_proc_1 >= -2582
 c388: u_a7 - u_a6 - 526 y_a6_proc_0 >= -18
 c389: u_a6 - u_a7 - 957 y_a7_proc_1 >= -2547
 c390: u_a6 - u_a7 - 125 y_a7_proc_0 >= 17
 c391: u_a8 - u_a6 - 1232 y_a6_proc_1 >= -1265
 c392: u_a8 - u_a6 - 526 y_a6_proc_0 >= -1265
 c393: u_a6 - u_a8 - 507 y_a8_proc_1 >= -1300
 c394: u_a6 - u_a8 - 733 y_a8_proc_0 >= -1300
 c395: u_a9 - u_a6 - 1232 y_a6_proc_1 >= -1265
 c396: u_a9 - u_a6 - 526 y_a6_proc_0 >= -1265
 c397: u_a6 - u_a9 - 1232 y_a9_proc_1 >= -1300
 c398: u_a6 - u_a9 - 1110 y_a9_proc_0 >= -1300
 c399: u_a10 - u_a6 - 526 y_a6_proc_0 >= -1300
 c400: u_a6 - u_a10 - 1220 y_a10_proc_0 >= -1265
 c401: u_a11 - u_a6 - 1232 y_a6_proc_1 >= -2565
 c402: u_a11 - u_a6 - 526 y_a6_proc_0 >= -1
 c403: u_a6 - u_a11 - 1099 y_a11_proc_1 >= -2564
 c404: u_a6 - u_a11 - 515 y_a11_proc_0 >= 0
 c405: u_a12 - u_a6 - 1232 y_a6_proc_1 >= -2566
 c406: u_a12 - u_a6 - 526 y_a6_proc_0 >= -2
 c407: u_a6 - u_a12 - 503 y_a12_proc_1 >= -2563
 c408: u_a6 - u_a12 - 772 y_a12_proc_0 >= 1
 c409: u_a13 - u_a6 - 1232 y_a6_proc_1 >= -1300
 c410: u_a6 - u_a13 - 685 y_a13_proc_1 >= -1265
 c411: u_a14 - u_a6 - 1232 y_a6_proc_1 >= -1265
 c412: u_a14 - u_a6 - 526 y_a6_proc_0 >= -1265
 c413: u_a6 - u_a14 - 761 y_a14_proc_1 >= -1300
 c414: u_a6 - u_a14 - 866 y_a14_proc_0 >= -1300
 c415: u_a8 - u_a7 - 957 y_a7_proc_1 >= -1300
 c416: u_a8 - u_a7 - 872 y_a7_proc_2 >= -2582
 c417: u_a8 - u_a7 - 125 y_a7_proc_0 >= -1300
 c418: u_a7 - u_a8 - 507 y_a8_proc_1 >= -1265
 c419: u_a7 - u_a8 - 1124 y_a8_proc_2 >= -2547
 c420: u_a7 - u_a8 - 733 y_a8_proc_0 >= -1265
 c421: u_a9 - u_a7 - 957 y_a7_proc_1 >= -1265
 c422: u_a9 - u_a7 - 125 y_a7_proc_0 >= -1265
 c423: u_a7 - u_a9 - 1232 y_a9_proc_1 >= -1300
 c424: u_a7 - u_a9 - 1110 y_a9_proc_0 >= -1300
 c425: u_a10 - u_a7 - 872 y_a7_proc_2 >= -1300
 c426: u_a10 - u_a7 - 125 y_a7_proc_0 >= -1300
 c427: u_a7 - u_a10 - 1131 y_a10_proc_2 >= -1265
 c428: u_a7 - u_a10 - 1220 y_a10_proc_0 >= -1265
 c429: u_a11 - u_a7 - 957 y_a7_proc_1 >= -2547
 c430: u_a11 - u_a7 - 125 y_a7_proc_0 >= 17
 c431: u_a7 - u_a11 - 1099 y_a11_proc_1 >= -2582
 c432: u_a7 - u_a11 - 515 y_a11_proc_0 >= -18
 c433: u_a12 - u_a7 - 957 y_a7_proc_1 >= -2548
 c434: u_a12 - u_a7 - 872 y_a7_proc_2 >= -2548
 c435: u_a12 - u_a7 - 125 y_a7_proc_0 >= 16
 c436: u_a7 - u_a12 - 503 y_a12_proc_1 >= -2581
 c437: u_a7 - u_a12 - 820 y_a12_proc_2 >= -2581
 c438: u_a7 - u_a12 - 772 y_a12_proc_0 >= -17
 c439: u_a13 - u_a7 - 957 y_a7_proc_1 >= -1300
 c440: u_a13 - u_a7 - 872 y_a7_proc_2 >= -2582
 c441: u_a7 - u_a13 - 685 y_a13_proc_1 >= -1265
 c442: u_a7 - u_a13 - 915 y_a13_proc_2 >= -2547
 c443: u_a14 - u_a7 - 957 y_a7_proc_1 >= -1300
 c444: u_a14 - u_a7 - 125 y_a7_proc_0 >= -1300
 c445: u_a7 - u_a14 - 761 y_a14_proc_1 >= -1265
 c446: u_a7 - u_a14 - 866 y_a14_proc_0 >= -1265
 c447: u_a9 - u_a8 - 507 y_a8_proc_1 >= 0
 c448: u_a9 - u_a8 - 733 y_a8_proc_0 >= -2564
 c449: u_a8 - u_a9 - 1232 y_a9_proc_1 >= -1
 c450: u_a8 - u_a9 - 1110 y_a9_proc_0 >= -2565
 c451: u_a10 - u_a8 - 1124 y_a8_proc_2 >= -1300
 c452: u_a10 - u_a8 - 733 y_a8_proc_0 >= -2582
 c453: u_a8 - u_a10 - 1131 y_a10_proc_2 >= -1265
 c454: u_a8 - u_a10 - 1220 y_a10_proc_0 >= -2547
 c455: u_a11 - u_a8 - 507 y_a8_proc_1 >= -1265
 c456: u_a11 - u_a8 - 733 y_a8_proc_0 >= -1265
 c457: u_a8 - u_a11 - 1099 y_a11_proc_1 >= -1300
 c458: u_a8 - u_a11 - 515 y_a11_proc_0 >= -1300
 c459: u_a12 - u_a8 - 507 y_a8_proc_1 >= -1300
 c460: u_a12 - u_a8 - 1124 y_a8_proc_2 >= -2582
 c461: u_a12 - u_a8 - 733 y_a8_proc_0 >= -1300
 c462: u_a8 - u_a12 - 503 y_a12_proc_1 >= -1265
 c463: u_a8 - u_a12 - 820 y_a12_proc_2 >= -2547
 c464: u_a8 - u_a12 - 772 y_a12_proc_0 >= -1265
 c465: u_a13 - u_a8 - 507 y_a8_proc_1 >= 1
 c466: u_a13 - u_a8 - 1124 y_a8_proc_2 >= -2563
 c467: u_a8 - u_a13 - 685 y_a13_proc_1 >= -2
 c468: u_a8 - u_a13 - 915 y_a13_proc_2 >= -2566
 c469: u_a14 - u_a8 - 507 y_a8_proc_1 >= -1
 c470: u_a14 - u_a8 - 733 y_a8_proc_0 >= -2565
 c471: u_a8 - u_a14 - 761 y_a14_proc_1 >= 0
 c472: u_a8 - u_a14 - 866 y_a14_proc_0 >= -2564
 c473: u_a10 - u_a9 - 1110 y_a9_proc_0 >= -2582
 c474: u_a9 - u_a10 - 1220 y_a10_proc_0 >= -2547
 c475: u_a11 - u_a9 - 1232 y_a9_proc_1 >= -1300
 c476: u_a11 - u_a9 - 1110 y_a9_proc_0 >= -1300
 c477: u_a9 - u_a11 - 1099 y_a11_proc_1 >= -1265
 c478: u_a9 - u_a11 - 515 y_a11_proc_0 >= -1265
 c479: u_a12 - u_a9 - 1232 y_a9_proc_1 >= -1265
 c480: u_a12 - u_a9 - 1110 y_a9_proc_0 >= -1265
 c481: u_a9 - u_a12 - 503 y_a12_proc_1 >= -1300
 c482: u_a9 - u_a12 - 772 y_a12_proc_0 >= -1300
 c483: u_a13 - u_a9 - 1232 y_a9_proc_1 >= 1
 c484: u_a9 - u_a13 - 685 y_a13_proc_1 >= -2
 c485: u_a14 - u_a9 - 1232 y_a9_proc_1 >= -1
 c486: u_a14 - u_a9 - 1110 y_a9_proc_0 >= -2565
 c487: u_a9 - u_a14 - 761 y_a14_proc_1 >= 0
 c488: u_a9 - u_a14 - 866 y_a14_proc_0 >= -2564
 c489: u_a11 - u_a10 - 1220 y_a10_proc_0 >= -1265
 c490: u_a10 - u_a11 - 515 y_a11_proc_0 >= -1300
 c491: u_a12 - u_a10 - 1131 y_a10_proc_2 >= -1300
 c492: u_a12 - u_a10 - 1220 y_a10_proc_0 >= -1300
 c493: u_a10 - u_a12 - 820 y_a12_proc_2 >= -1265
 c494: u_a10 - u_a12 - 772 y_a12_proc_0 >= -1265
 c495: u_a13 - u_a10 - 1131 y_a10_proc_2 >= -1265
 c496: u_a10 - u_a13 - 915 y_a13_proc_2 >= -1300
 c497: u_a14 - u_a10 - 1220 y_a10_proc_0 >= -2547
 c498: u_a10 - u_a14 - 866 y_a14_proc_0 >= -2582
 c499: u_a12 - u_a11 - 1099 y_a11_proc_1 >= -2566
 c500: u_a12 - u_a11 - 515 y_a11_proc_0 >= -2
 c501: u_a11 - u_a12 - 503 y_a12_proc_1 >= -2563
 c502: u_a11 - u_a12 - 772 y_a12_proc_0 >= 1
 c503: u_a13 - u_a11 - 1099 y_a11_proc_1 >= -1265
 c504: u_a11 - u_a13 - 685 y_a13_proc_1 >= -1300
 c505: u_a14 - u_a11 - 1099 y_a11_proc_1 >= -1300
 c506: u_a14 - u_a11 - 515 y_a11_proc_0 >= -1300
 c507: u_a11 - u_a14 - 761 y_a14_proc_1 >= -1265
 c508: u_a11 - u_a14 - 866 y_a14_proc_0 >= -1265
 c509: u_a13 - u_a12 - 503 y_a12_proc_1 >= -1300
 c510: u_a13 - u_a12 - 820 y_a12_proc_2 >= -2582
 c511: u_a12 - u_a13 - 685 y_a13_proc_1 >= -1265
 c512: u_a12 - u_a13 - 915 y_a13_proc_2 >= -2547
 c513: u_a14 - u_a12 - 503 y_a12_proc_1 >= -1300
 c514: u_a14 - u_a12 - 772 y_a12_proc_0 >= -1300
 c515: u_a12 - u_a14 - 761 y_a14_proc_1 >= -1265
 c516: u_a12 - u_a14 - 866 y_a14_proc_0 >= -1265
 c517: u_a14 - u_a13 - 685 y_a13_proc_1 >= -2
 c518: u_a13 - u_a14 - 761 y_a14_proc_1 >= 1

Bounds
End
